p edge 30 176
e 1 2
e 1 3
e 1 4
e 1 5
e 1 6
e 1 7
e 1 8
e 1 9
e 1 12
e 1 13
e 1 14
e 1 15
e 1 16
e 1 17
e 1 18
e 1 19
e 1 20
e 1 26
e 1 28
e 1 29
e 1 30
e 2 3
e 2 5
e 2 6
e 2 7
e 2 8
e 2 9
e 2 12
e 2 13
e 2 14
e 2 15
e 2 16
e 2 17
e 2 18
e 2 19
e 2 20
e 2 26
e 2 28
e 2 29
e 3 9
e 3 12
e 3 13
e 3 14
e 3 15
e 3 16
e 3 17
e 3 18
e 3 19
e 3 20
e 4 30
e 5 9
e 5 12
e 5 13
e 5 14
e 5 15
e 5 16
e 5 17
e 5 18
e 5 19
e 5 20
e 5 29
e 6 9
e 6 12
e 6 13
e 6 14
e 6 15
e 6 16
e 6 17
e 6 18
e 6 19
e 6 20
e 6 26
e 7 8
e 7 9
e 7 12
e 7 13
e 7 14
e 7 15
e 7 16
e 7 17
e 7 18
e 7 19
e 7 20
e 7 28
e 8 9
e 8 12
e 8 13
e 8 14
e 8 15
e 8 16
e 8 17
e 8 18
e 8 19
e 8 20
e 8 28
e 9 10
e 9 11
e 9 12
e 9 13
e 9 14
e 9 15
e 9 16
e 9 17
e 9 18
e 9 19
e 9 20
e 9 26
e 9 28
e 9 29
e 12 13
e 12 14
e 12 15
e 12 16
e 12 17
e 12 18
e 12 19
e 12 20
e 12 26
e 12 28
e 12 29
e 13 14
e 13 15
e 13 16
e 13 17
e 13 18
e 13 19
e 13 20
e 13 26
e 13 28
e 13 29
e 14 15
e 14 16
e 14 17
e 14 18
e 14 19
e 14 20
e 14 26
e 14 28
e 14 29
e 15 16
e 15 17
e 15 18
e 15 19
e 15 20
e 15 26
e 15 28
e 15 29
e 16 17
e 16 18
e 16 19
e 16 20
e 16 26
e 16 28
e 16 29
e 17 18
e 17 19
e 17 20
e 17 26
e 17 28
e 17 29
e 18 19
e 18 20
e 18 26
e 18 28
e 18 29
e 19 20
e 19 26
e 19 28
e 19 29
e 20 26
e 20 28
e 20 29
e 21 30
e 22 30
e 23 30
e 24 30
